p cep 215 4452
1 5
1 19
1 23
1 25
1 27
1 30
1 38
1 39
1 42
1 44
1 46
1 47
1 48
1 49
1 51
1 52
1 53
1 54
1 55
1 60
1 64
1 66
1 67
1 68
1 70
1 71
1 72
1 73
1 77
1 82
1 88
1 92
1 95
1 96
1 97
1 98
1 100
1 106
1 108
1 115
1 118
1 119
1 121
1 124
1 127
1 134
1 139
1 141
1 142
1 143
1 151
1 155
1 156
1 159
1 163
1 164
1 166
1 168
1 169
1 170
1 177
1 178
1 180
1 181
1 182
1 183
1 184
1 190
1 195
1 203
1 205
1 209
1 211
1 212
1 213
2 6
2 7
2 10
2 12
2 17
2 20
2 21
2 22
2 28
2 29
2 32
2 35
2 36
2 50
2 59
2 61
2 69
2 76
2 79
2 86
2 89
2 93
2 94
2 101
2 102
2 105
2 107
2 122
2 126
2 135
2 137
2 145
2 150
2 158
2 160
2 161
2 167
2 174
2 179
2 185
2 186
2 187
2 189
2 194
2 196
2 197
2 200
2 202
2 204
2 208
2 214
3 16
3 33
3 34
3 109
3 110
3 171
3 188
3 210
4 11
4 14
4 15
4 18
4 43
4 57
4 78
4 80
4 83
4 84
4 99
4 103
4 113
4 116
4 120
4 128
4 136
4 144
4 149
4 153
4 154
4 162
4 191
4 198
5 9
5 19
5 23
5 25
5 27
5 30
5 38
5 42
5 44
5 46
5 47
5 48
5 49
5 51
5 52
5 53
5 54
5 55
5 58
5 60
5 64
5 66
5 67
5 70
5 71
5 72
5 73
5 77
5 81
5 82
5 88
5 92
5 96
5 97
5 98
5 100
5 106
5 115
5 118
5 119
5 121
5 124
5 134
5 139
5 143
5 151
5 155
5 156
5 159
5 163
5 166
5 168
5 169
5 170
5 173
5 176
5 177
5 178
5 180
5 181
5 182
5 184
5 190
5 195
5 203
5 205
5 211
5 212
5 213
6 7
6 28
6 32
6 36
6 61
6 69
6 91
6 93
6 101
6 102
6 126
6 158
6 160
6 179
6 186
6 196
6 204
7 10
7 12
7 17
7 20
7 21
7 22
7 28
7 29
7 32
7 35
7 36
7 50
7 59
7 61
7 69
7 76
7 79
7 86
7 89
7 93
7 94
7 102
7 105
7 107
7 122
7 126
7 135
7 137
7 145
7 150
7 158
7 160
7 161
7 167
7 174
7 185
7 186
7 187
7 189
7 194
7 197
7 200
7 202
7 204
7 208
7 214
8 24
8 45
8 62
8 74
8 90
8 111
8 123
8 125
8 133
8 138
8 147
8 165
8 206
9 19
9 27
9 30
9 38
9 41
9 42
9 46
9 47
9 48
9 49
9 52
9 53
9 54
9 55
9 58
9 64
9 66
9 67
9 70
9 71
9 72
9 73
9 77
9 81
9 82
9 87
9 92
9 96
9 97
9 98
9 106
9 115
9 118
9 121
9 124
9 127
9 129
9 134
9 140
9 141
9 142
9 143
9 151
9 155
9 156
9 159
9 164
9 166
9 169
9 170
9 173
9 177
9 178
9 180
9 181
9 182
9 183
9 184
9 190
9 195
9 203
9 205
9 211
9 212
10 17
10 20
10 21
10 22
10 28
10 29
10 32
10 35
10 36
10 50
10 59
10 61
10 69
10 76
10 79
10 86
10 89
10 93
10 94
10 102
10 105
10 107
10 122
10 126
10 135
10 137
10 145
10 150
10 158
10 160
10 161
10 167
10 174
10 185
10 186
10 187
10 189
10 194
10 197
10 200
10 202
10 204
10 208
11 14
11 15
11 18
11 43
11 57
11 78
11 80
11 83
11 84
11 99
11 103
11 113
11 116
11 120
11 128
11 144
11 149
11 153
11 154
11 162
11 191
11 198
12 17
12 20
12 21
12 22
12 28
12 32
12 36
12 50
12 61
12 69
12 76
12 79
12 89
12 93
12 94
12 102
12 105
12 107
12 122
12 126
12 135
12 137
12 145
12 150
12 158
12 160
12 161
12 167
12 185
12 186
12 189
12 194
12 197
12 200
12 202
12 204
12 214
13 45
13 74
13 111
13 114
13 123
13 138
13 148
13 199
14 15
14 18
14 43
14 57
14 78
14 80
14 83
14 84
14 99
14 103
14 113
14 116
14 120
14 128
14 136
14 144
14 149
14 153
14 154
14 162
14 191
14 198
15 18
15 43
15 57
15 78
15 80
15 83
15 84
15 99
15 103
15 113
15 116
15 120
15 128
15 136
15 144
15 149
15 153
15 154
15 162
15 191
15 198
16 33
16 34
16 109
16 110
16 171
16 188
16 192
16 210
17 20
17 21
17 22
17 28
17 32
17 35
17 36
17 50
17 59
17 61
17 69
17 76
17 79
17 89
17 93
17 94
17 102
17 105
17 107
17 122
17 126
17 135
17 137
17 145
17 150
17 158
17 160
17 161
17 167
17 185
17 186
17 187
17 189
17 194
17 197
17 200
17 202
17 204
17 208
17 214
18 43
18 57
18 78
18 80
18 83
18 84
18 99
18 103
18 113
18 116
18 120
18 128
18 136
18 144
18 149
18 153
18 154
18 162
18 191
18 198
19 25
19 27
19 30
19 38
19 42
19 47
19 51
19 53
19 54
19 55
19 64
19 67
19 70
19 71
19 72
19 73
19 81
19 82
19 92
19 98
19 115
19 124
19 134
19 143
19 151
19 159
19 169
19 176
19 181
19 182
19 190
19 195
19 203
19 205
19 211
19 212
20 21
20 22
20 28
20 32
20 35
20 36
20 50
20 59
20 61
20 69
20 76
20 79
20 86
20 89
20 93
20 94
20 102
20 105
20 107
20 122
20 126
20 135
20 137
20 145
20 150
20 158
20 160
20 161
20 167
20 185
20 186
20 187
20 189
20 194
20 197
20 200
20 202
20 204
20 208
20 214
21 22
21 28
21 29
21 32
21 35
21 36
21 50
21 61
21 69
21 76
21 79
21 89
21 93
21 94
21 102
21 105
21 107
21 122
21 126
21 135
21 137
21 145
21 150
21 158
21 160
21 161
21 167
21 174
21 185
21 186
21 187
21 189
21 194
21 197
21 200
21 202
21 204
21 208
21 214
22 28
22 29
22 32
22 35
22 36
22 50
22 59
22 61
22 69
22 76
22 79
22 86
22 89
22 93
22 94
22 102
22 105
22 107
22 122
22 126
22 135
22 137
22 145
22 150
22 158
22 160
22 161
22 167
22 185
22 186
22 187
22 189
22 194
22 197
22 200
22 202
22 204
22 208
22 214
23 25
23 27
23 30
23 38
23 39
23 44
23 46
23 47
23 49
23 51
23 52
23 54
23 55
23 60
23 64
23 66
23 67
23 70
23 71
23 72
23 73
23 77
23 82
23 88
23 92
23 95
23 96
23 97
23 98
23 106
23 108
23 115
23 119
23 121
23 139
23 143
23 151
23 159
23 166
23 168
23 169
23 170
23 176
23 177
23 178
23 180
23 181
23 182
23 183
23 184
23 195
23 203
23 205
23 209
23 211
23 213
24 62
24 90
24 117
24 125
24 138
24 147
24 157
24 165
24 172
24 206
24 215
25 27
25 30
25 38
25 39
25 42
25 44
25 46
25 47
25 48
25 49
25 51
25 52
25 53
25 54
25 55
25 60
25 64
25 66
25 67
25 68
25 70
25 71
25 72
25 73
25 77
25 82
25 88
25 92
25 95
25 96
25 97
25 98
25 100
25 106
25 108
25 115
25 118
25 119
25 121
25 124
25 127
25 134
25 139
25 141
25 142
25 143
25 151
25 155
25 156
25 159
25 163
25 164
25 166
25 168
25 169
25 170
25 177
25 178
25 180
25 181
25 182
25 183
25 184
25 190
25 195
25 203
25 205
25 209
25 211
25 212
25 213
26 37
26 40
26 85
26 175
26 207
27 30
27 38
27 39
27 42
27 44
27 46
27 47
27 48
27 49
27 51
27 52
27 53
27 54
27 55
27 58
27 60
27 64
27 66
27 67
27 68
27 70
27 71
27 72
27 73
27 77
27 81
27 82
27 88
27 92
27 95
27 96
27 97
27 98
27 100
27 106
27 108
27 115
27 118
27 119
27 121
27 124
27 127
27 129
27 131
27 134
27 139
27 141
27 142
27 143
27 151
27 155
27 156
27 159
27 163
27 164
27 166
27 168
27 169
27 170
27 173
27 176
27 177
27 178
27 180
27 181
27 182
27 183
27 184
27 190
27 195
27 203
27 205
27 209
27 211
27 212
27 213
28 29
28 32
28 35
28 36
28 50
28 59
28 61
28 69
28 76
28 79
28 86
28 89
28 91
28 93
28 94
28 102
28 105
28 107
28 122
28 126
28 135
28 137
28 145
28 150
28 158
28 160
28 161
28 167
28 174
28 179
28 185
28 186
28 187
28 189
28 194
28 197
28 200
28 202
28 204
28 208
28 214
29 32
29 35
29 36
29 50
29 59
29 61
29 69
29 76
29 79
29 86
29 89
29 93
29 94
29 102
29 105
29 107
29 122
29 126
29 135
29 137
29 145
29 150
29 158
29 160
29 161
29 167
29 174
29 185
29 186
29 187
29 189
29 194
29 197
29 200
29 202
29 204
29 208
30 38
30 39
30 42
30 44
30 46
30 47
30 48
30 49
30 51
30 52
30 53
30 54
30 55
30 60
30 63
30 64
30 66
30 67
30 68
30 70
30 71
30 72
30 73
30 77
30 81
30 82
30 88
30 92
30 95
30 96
30 97
30 98
30 100
30 106
30 108
30 115
30 118
30 119
30 121
30 124
30 131
30 134
30 139
30 141
30 142
30 143
30 151
30 155
30 156
30 159
30 163
30 166
30 168
30 169
30 170
30 176
30 177
30 178
30 180
30 181
30 182
30 183
30 184
30 190
30 195
30 203
30 205
30 209
30 211
30 212
30 213
31 37
31 132
31 146
31 193
31 201
32 35
32 36
32 50
32 59
32 61
32 69
32 76
32 79
32 86
32 89
32 91
32 93
32 94
32 102
32 105
32 107
32 122
32 126
32 135
32 137
32 145
32 150
32 158
32 160
32 161
32 167
32 174
32 185
32 186
32 187
32 189
32 194
32 197
32 200
32 202
32 204
32 208
32 214
33 34
33 109
33 110
33 171
33 188
33 210
34 40
34 109
34 110
34 171
34 188
34 192
34 210
35 36
35 50
35 59
35 61
35 69
35 76
35 79
35 86
35 89
35 93
35 94
35 102
35 105
35 107
35 122
35 126
35 135
35 137
35 145
35 150
35 158
35 160
35 161
35 167
35 174
35 185
35 186
35 187
35 189
35 194
35 197
35 200
35 202
35 204
35 208
36 50
36 59
36 61
36 69
36 76
36 79
36 86
36 89
36 91
36 93
36 94
36 102
36 105
36 107
36 122
36 126
36 135
36 137
36 145
36 150
36 158
36 160
36 161
36 167
36 174
36 185
36 186
36 187
36 189
36 194
36 197
36 200
36 202
36 204
36 208
36 214
37 85
37 192
37 193
38 39
38 42
38 44
38 46
38 47
38 48
38 49
38 51
38 52
38 53
38 54
38 55
38 58
38 60
38 64
38 66
38 67
38 68
38 70
38 71
38 72
38 73
38 77
38 81
38 82
38 88
38 92
38 95
38 96
38 97
38 98
38 100
38 106
38 108
38 115
38 118
38 119
38 121
38 124
38 131
38 134
38 139
38 141
38 142
38 143
38 151
38 155
38 156
38 159
38 163
38 166
38 168
38 169
38 170
38 176
38 177
38 178
38 180
38 181
38 182
38 183
38 184
38 190
38 195
38 203
38 205
38 209
38 211
38 212
38 213
39 44
39 46
39 47
39 49
39 51
39 52
39 54
39 55
39 60
39 64
39 66
39 67
39 70
39 71
39 72
39 73
39 77
39 82
39 88
39 92
39 95
39 96
39 97
39 98
39 106
39 108
39 115
39 119
39 121
39 139
39 143
39 159
39 166
39 168
39 169
39 170
39 178
39 181
39 182
39 184
39 195
39 203
39 205
39 209
39 211
39 213
40 175
40 192
40 207
41 42
41 48
41 52
41 53
41 58
41 81
41 82
41 87
41 118
41 124
41 127
41 129
41 134
41 140
41 141
41 142
41 151
41 155
41 156
41 164
41 170
41 173
41 183
41 190
41 212
42 46
42 47
42 48
42 49
42 51
42 52
42 53
42 54
42 55
42 58
42 64
42 67
42 70
42 71
42 72
42 73
42 81
42 82
42 87
42 92
42 97
42 98
42 106
42 115
42 118
42 124
42 127
42 129
42 134
42 139
42 140
42 141
42 142
42 151
42 155
42 156
42 159
42 164
42 168
42 169
42 170
42 173
42 176
42 177
42 178
42 181
42 182
42 183
42 184
42 190
42 195
42 203
42 205
42 212
42 213
43 57
43 78
43 80
43 83
43 84
43 99
43 103
43 113
43 116
43 120
43 128
43 136
43 144
43 149
43 153
43 154
43 162
43 191
43 198
44 46
44 47
44 49
44 51
44 52
44 54
44 55
44 60
44 64
44 66
44 67
44 70
44 71
44 72
44 73
44 77
44 82
44 88
44 92
44 95
44 96
44 97
44 98
44 106
44 108
44 115
44 119
44 121
44 124
44 127
44 139
44 143
44 156
44 159
44 163
44 164
44 166
44 168
44 169
44 170
44 177
44 178
44 180
44 181
44 182
44 184
44 195
44 203
44 205
44 209
44 211
44 212
44 213
45 74
45 90
45 114
45 123
45 138
45 148
45 199
45 206
46 47
46 48
46 49
46 51
46 52
46 53
46 54
46 55
46 58
46 60
46 64
46 66
46 67
46 70
46 71
46 72
46 73
46 77
46 81
46 82
46 88
46 92
46 95
46 96
46 97
46 98
46 100
46 106
46 108
46 115
46 118
46 119
46 121
46 124
46 139
46 142
46 143
46 151
46 155
46 156
46 159
46 163
46 166
46 168
46 169
46 170
46 173
46 176
46 177
46 178
46 180
46 181
46 182
46 184
46 190
46 195
46 203
46 205
46 209
46 211
46 212
46 213
47 48
47 49
47 51
47 52
47 53
47 54
47 55
47 58
47 60
47 64
47 66
47 67
47 70
47 71
47 72
47 73
47 77
47 81
47 82
47 88
47 92
47 95
47 96
47 97
47 98
47 100
47 106
47 108
47 115
47 118
47 119
47 121
47 124
47 127
47 129
47 134
47 139
47 141
47 142
47 143
47 151
47 155
47 156
47 159
47 163
47 164
47 166
47 168
47 169
47 170
47 173
47 176
47 177
47 178
47 180
47 181
47 182
47 183
47 184
47 190
47 195
47 203
47 205
47 209
47 211
47 212
47 213
48 49
48 51
48 52
48 53
48 54
48 55
48 58
48 60
48 64
48 66
48 67
48 70
48 71
48 72
48 73
48 77
48 81
48 82
48 87
48 88
48 92
48 97
48 98
48 106
48 115
48 118
48 121
48 124
48 127
48 129
48 134
48 139
48 140
48 141
48 142
48 151
48 155
48 156
48 159
48 164
48 166
48 169
48 170
48 173
48 177
48 178
48 180
48 181
48 182
48 183
48 184
48 190
48 195
48 203
48 205
48 211
48 212
48 213
49 51
49 52
49 53
49 54
49 55
49 60
49 64
49 66
49 67
49 70
49 71
49 72
49 73
49 77
49 82
49 88
49 92
49 95
49 96
49 97
49 98
49 106
49 108
49 115
49 119
49 121
49 124
49 139
49 142
49 143
49 151
49 159
49 163
49 166
49 168
49 169
49 170
49 177
49 178
49 180
49 181
49 182
49 184
49 190
49 195
49 203
49 205
49 209
49 211
49 212
49 213
50 59
50 61
50 69
50 76
50 79
50 86
50 89
50 93
50 94
50 102
50 105
50 107
50 122
50 126
50 135
50 137
50 145
50 150
50 158
50 160
50 161
50 167
50 174
50 185
50 186
50 187
50 189
50 194
50 197
50 200
50 202
50 204
50 208
50 214
51 52
51 53
51 54
51 55
51 60
51 64
51 66
51 67
51 68
51 70
51 71
51 72
51 73
51 77
51 82
51 88
51 92
51 95
51 96
51 97
51 98
51 100
51 106
51 108
51 115
51 118
51 119
51 121
51 124
51 127
51 134
51 139
51 141
51 142
51 143
51 151
51 155
51 156
51 159
51 163
51 164
51 166
51 168
51 169
51 170
51 177
51 178
51 180
51 181
51 182
51 183
51 184
51 190
51 195
51 203
51 205
51 209
51 211
51 212
51 213
52 53
52 54
52 55
52 58
52 60
52 64
52 66
52 67
52 70
52 71
52 72
52 73
52 77
52 81
52 82
52 87
52 92
52 95
52 96
52 97
52 98
52 100
52 106
52 108
52 115
52 118
52 119
52 121
52 124
52 129
52 134
52 139
52 140
52 141
52 142
52 143
52 151
52 155
52 156
52 159
52 163
52 166
52 168
52 169
52 170
52 173
52 176
52 177
52 178
52 180
52 181
52 182
52 183
52 184
52 190
52 195
52 203
52 205
52 209
52 211
52 212
52 213
53 54
53 55
53 58
53 64
53 67
53 70
53 71
53 72
53 73
53 77
53 81
53 82
53 87
53 92
53 97
53 98
53 106
53 115
53 118
53 119
53 121
53 124
53 127
53 129
53 134
53 139
53 140
53 141
53 142
53 143
53 151
53 155
53 156
53 159
53 164
53 166
53 169
53 170
53 173
53 177
53 178
53 181
53 182
53 183
53 184
53 190
53 195
53 203
53 211
53 212
53 213
54 55
54 58
54 60
54 64
54 66
54 67
54 68
54 70
54 71
54 72
54 73
54 77
54 81
54 82
54 88
54 92
54 95
54 96
54 97
54 98
54 100
54 106
54 108
54 115
54 118
54 119
54 121
54 124
54 134
54 139
54 141
54 142
54 143
54 151
54 155
54 156
54 159
54 163
54 166
54 168
54 169
54 170
54 173
54 176
54 177
54 178
54 180
54 181
54 182
54 183
54 184
54 190
54 195
54 203
54 205
54 209
54 211
54 212
54 213
55 58
55 60
55 64
55 66
55 67
55 68
55 70
55 71
55 72
55 73
55 77
55 81
55 82
55 88
55 92
55 95
55 96
55 97
55 98
55 100
55 106
55 108
55 115
55 118
55 119
55 121
55 124
55 127
55 129
55 134
55 139
55 141
55 142
55 143
55 151
55 155
55 156
55 159
55 163
55 164
55 166
55 168
55 169
55 170
55 173
55 176
55 177
55 178
55 180
55 181
55 182
55 183
55 184
55 190
55 195
55 203
55 205
55 209
55 211
55 212
55 213
56 172
57 78
57 80
57 83
57 84
57 99
57 103
57 113
57 116
57 120
57 128
57 136
57 144
57 149
57 153
57 154
57 162
57 191
57 198
58 60
58 64
58 66
58 67
58 71
58 73
58 81
58 82
58 87
58 88
58 106
58 115
58 118
58 119
58 121
58 124
58 127
58 129
58 134
58 140
58 141
58 142
58 151
58 155
58 156
58 159
58 163
58 164
58 166
58 170
58 173
58 176
58 181
58 182
58 183
58 184
58 190
58 195
58 203
58 205
58 211
58 212
59 61
59 69
59 76
59 79
59 86
59 89
59 93
59 94
59 102
59 105
59 107
59 122
59 126
59 135
59 137
59 145
59 150
59 158
59 160
59 161
59 167
59 174
59 185
59 186
59 187
59 189
59 194
59 197
59 200
59 202
59 204
59 208
60 64
60 66
60 67
60 70
60 71
60 72
60 73
60 77
60 82
60 88
60 92
60 95
60 97
60 98
60 106
60 108
60 115
60 118
60 119
60 121
60 124
60 139
60 142
60 143
60 151
60 159
60 166
60 168
60 169
60 170
60 177
60 178
60 181
60 182
60 184
60 190
60 195
60 203
60 205
60 209
60 211
60 212
60 213
61 69
61 76
61 79
61 86
61 89
61 93
61 94
61 102
61 105
61 107
61 122
61 126
61 135
61 137
61 145
61 150
61 158
61 160
61 161
61 167
61 174
61 185
61 186
61 187
61 189
61 194
61 197
61 200
61 202
61 204
61 208
61 214
62 74
62 90
62 111
62 123
62 133
62 138
62 147
62 206
63 70
63 72
63 75
63 104
63 131
64 66
64 67
64 70
64 71
64 72
64 73
64 77
64 81
64 82
64 88
64 92
64 95
64 96
64 97
64 98
64 100
64 106
64 108
64 115
64 118
64 119
64 121
64 124
64 127
64 134
64 139
64 142
64 143
64 151
64 155
64 156
64 159
64 163
64 164
64 166
64 168
64 169
64 170
64 173
64 176
64 177
64 178
64 180
64 181
64 182
64 183
64 184
64 190
64 195
64 203
64 205
64 209
64 211
64 212
64 213
66 67
66 70
66 71
66 72
66 73
66 77
66 82
66 88
66 92
66 95
66 96
66 97
66 98
66 106
66 108
66 115
66 118
66 119
66 121
66 124
66 127
66 139
66 143
66 151
66 156
66 159
66 163
66 164
66 166
66 168
66 169
66 170
66 173
66 177
66 178
66 180
66 181
66 182
66 183
66 184
66 190
66 195
66 203
66 205
66 209
66 211
66 212
66 213
67 68
67 70
67 71
67 72
67 73
67 77
67 81
67 82
67 87
67 88
67 92
67 95
67 96
67 97
67 98
67 100
67 106
67 108
67 115
67 118
67 119
67 121
67 124
67 127
67 134
67 139
67 140
67 141
67 142
67 143
67 151
67 156
67 159
67 163
67 164
67 166
67 168
67 169
67 170
67 173
67 176
67 177
67 178
67 180
67 181
67 182
67 183
67 184
67 190
67 195
67 203
67 205
67 209
67 211
67 212
67 213
68 70
68 71
68 72
68 82
68 98
68 139
68 168
68 169
68 181
68 182
68 190
68 203
68 205
68 213
69 76
69 79
69 86
69 89
69 93
69 94
69 102
69 105
69 107
69 122
69 126
69 135
69 137
69 145
69 150
69 158
69 160
69 161
69 167
69 174
69 185
69 186
69 187
69 189
69 194
69 197
69 200
69 202
69 204
69 208
69 214
70 71
70 72
70 73
70 77
70 81
70 82
70 88
70 92
70 95
70 96
70 97
70 98
70 100
70 106
70 108
70 115
70 118
70 119
70 121
70 124
70 131
70 134
70 139
70 141
70 142
70 143
70 151
70 155
70 156
70 159
70 163
70 166
70 168
70 169
70 170
70 176
70 177
70 178
70 180
70 181
70 182
70 183
70 184
70 190
70 195
70 203
70 205
70 209
70 211
70 212
70 213
71 72
71 73
71 77
71 81
71 82
71 87
71 88
71 92
71 95
71 96
71 97
71 98
71 100
71 106
71 108
71 115
71 118
71 119
71 121
71 124
71 127
71 129
71 134
71 139
71 140
71 141
71 142
71 143
71 151
71 155
71 156
71 159
71 163
71 164
71 166
71 168
71 169
71 170
71 173
71 176
71 177
71 178
71 180
71 181
71 182
71 183
71 184
71 190
71 195
71 203
71 205
71 209
71 211
71 212
71 213
72 73
72 77
72 81
72 82
72 88
72 92
72 95
72 96
72 97
72 98
72 100
72 106
72 108
72 115
72 118
72 119
72 121
72 124
72 131
72 134
72 139
72 141
72 142
72 143
72 151
72 155
72 156
72 159
72 163
72 166
72 168
72 169
72 170
72 176
72 177
72 178
72 180
72 181
72 182
72 183
72 184
72 190
72 195
72 203
72 205
72 209
72 211
72 212
72 213
73 77
73 81
73 82
73 88
73 92
73 95
73 96
73 97
73 98
73 100
73 106
73 108
73 115
73 118
73 119
73 121
73 124
73 139
73 141
73 142
73 143
73 151
73 155
73 156
73 159
73 163
73 166
73 168
73 169
73 170
73 173
73 176
73 177
73 178
73 180
73 181
73 182
73 184
73 190
73 195
73 203
73 205
73 209
73 211
73 212
73 213
74 90
74 111
74 114
74 123
74 138
74 148
74 199
74 206
75 104
75 131
76 79
76 86
76 89
76 93
76 94
76 102
76 105
76 107
76 122
76 126
76 135
76 137
76 145
76 150
76 158
76 160
76 161
76 167
76 174
76 185
76 186
76 187
76 189
76 194
76 197
76 200
76 202
76 204
76 208
76 214
77 82
77 88
77 92
77 95
77 96
77 97
77 98
77 100
77 106
77 108
77 115
77 118
77 119
77 121
77 124
77 139
77 142
77 143
77 151
77 155
77 156
77 159
77 163
77 166
77 168
77 169
77 170
77 177
77 178
77 180
77 181
77 182
77 183
77 184
77 190
77 195
77 203
77 205
77 209
77 211
77 212
77 213
78 80
78 83
78 84
78 99
78 103
78 113
78 116
78 120
78 128
78 136
78 144
78 149
78 153
78 154
78 162
78 191
78 198
79 86
79 89
79 93
79 94
79 102
79 105
79 107
79 122
79 126
79 135
79 137
79 145
79 150
79 158
79 160
79 161
79 167
79 174
79 185
79 186
79 187
79 189
79 194
79 197
79 200
79 202
79 204
79 208
79 214
80 83
80 84
80 99
80 103
80 113
80 116
80 120
80 128
80 136
80 144
80 149
80 153
80 154
80 162
80 191
80 198
81 82
81 87
81 92
81 96
81 97
81 98
81 106
81 115
81 118
81 124
81 127
81 129
81 134
81 140
81 141
81 142
81 151
81 155
81 156
81 159
81 164
81 166
81 169
81 170
81 173
81 178
81 181
81 182
81 183
81 184
81 190
81 195
81 203
81 205
81 212
82 87
82 88
82 92
82 95
82 96
82 97
82 98
82 100
82 106
82 108
82 115
82 118
82 119
82 121
82 124
82 127
82 129
82 134
82 139
82 140
82 141
82 142
82 143
82 151
82 155
82 156
82 159
82 163
82 164
82 166
82 168
82 169
82 170
82 173
82 176
82 177
82 178
82 180
82 181
82 182
82 183
82 184
82 190
82 195
82 203
82 205
82 209
82 211
82 212
82 213
83 84
83 99
83 103
83 113
83 116
83 120
83 128
83 136
83 144
83 149
83 153
83 154
83 162
83 191
83 198
84 99
84 103
84 113
84 116
84 120
84 128
84 136
84 144
84 149
84 153
84 154
84 162
84 191
84 198
86 89
86 93
86 94
86 102
86 105
86 107
86 122
86 126
86 135
86 137
86 145
86 150
86 158
86 160
86 161
86 167
86 174
86 185
86 186
86 187
86 189
86 194
86 197
86 200
86 204
86 208
87 118
87 124
87 127
87 129
87 134
87 140
87 141
87 142
87 151
87 155
87 156
87 164
87 170
87 173
87 181
87 182
87 183
87 190
87 212
88 92
88 95
88 96
88 97
88 98
88 100
88 106
88 108
88 115
88 119
88 121
88 127
88 139
88 142
88 143
88 151
88 156
88 159
88 163
88 164
88 166
88 168
88 169
88 170
88 177
88 178
88 180
88 181
88 182
88 184
88 195
88 203
88 205
88 209
88 211
88 212
88 213
89 93
89 94
89 102
89 105
89 107
89 122
89 126
89 135
89 137
89 145
89 150
89 158
89 160
89 161
89 167
89 174
89 185
89 186
89 187
89 189
89 194
89 197
89 200
89 202
89 204
89 208
89 214
90 114
90 117
90 123
90 125
90 133
90 138
90 147
90 165
90 206
91 101
91 158
91 160
91 179
91 196
91 204
92 95
92 96
92 97
92 98
92 106
92 108
92 115
92 118
92 119
92 121
92 124
92 127
92 139
92 141
92 143
92 151
92 155
92 156
92 159
92 163
92 164
92 166
92 168
92 169
92 170
92 177
92 178
92 180
92 181
92 182
92 183
92 184
92 190
92 195
92 203
92 205
92 209
92 211
92 212
92 213
93 94
93 102
93 105
93 107
93 122
93 126
93 135
93 137
93 145
93 150
93 158
93 160
93 161
93 167
93 174
93 179
93 185
93 186
93 187
93 189
93 194
93 197
93 200
93 202
93 204
93 208
93 214
94 102
94 105
94 107
94 122
94 126
94 135
94 137
94 145
94 150
94 158
94 160
94 161
94 167
94 174
94 185
94 186
94 189
94 194
94 197
94 200
94 202
94 204
94 208
94 214
95 96
95 97
95 98
95 106
95 108
95 115
95 119
95 121
95 124
95 139
95 143
95 151
95 159
95 166
95 168
95 169
95 170
95 177
95 178
95 181
95 182
95 184
95 195
95 203
95 205
95 209
95 211
95 213
96 97
96 98
96 106
96 108
96 115
96 118
96 119
96 121
96 124
96 139
96 143
96 151
96 156
96 159
96 163
96 166
96 168
96 169
96 170
96 177
96 178
96 180
96 181
96 182
96 184
96 190
96 195
96 203
96 205
96 209
96 211
96 212
96 213
97 98
97 100
97 106
97 108
97 115
97 118
97 119
97 121
97 124
97 134
97 139
97 140
97 142
97 143
97 151
97 155
97 156
97 159
97 163
97 166
97 168
97 169
97 170
97 173
97 177
97 178
97 180
97 181
97 182
97 183
97 184
97 190
97 195
97 203
97 205
97 209
97 211
97 212
97 213
98 100
98 106
98 108
98 115
98 118
98 119
98 121
98 124
98 134
98 139
98 140
98 141
98 142
98 143
98 151
98 155
98 156
98 159
98 163
98 166
98 168
98 169
98 170
98 176
98 177
98 178
98 180
98 181
98 182
98 183
98 184
98 190
98 195
98 203
98 205
98 209
98 211
98 212
98 213
99 103
99 113
99 116
99 120
99 128
99 136
99 144
99 149
99 153
99 154
99 162
99 191
99 198
100 106
100 115
100 139
100 143
100 151
100 159
100 163
100 166
100 168
100 169
100 170
100 176
100 177
100 181
100 182
100 184
100 195
100 205
100 212
100 213
101 179
101 196
102 105
102 107
102 122
102 126
102 135
102 137
102 145
102 150
102 158
102 160
102 161
102 167
102 174
102 185
102 186
102 187
102 189
102 194
102 197
102 200
102 202
102 204
102 208
102 214
103 113
103 116
103 120
103 128
103 136
103 144
103 149
103 153
103 154
103 162
103 191
103 198
104 131
105 107
105 122
105 126
105 135
105 137
105 145
105 150
105 158
105 160
105 161
105 167
105 174
105 185
105 186
105 187
105 189
105 194
105 197
105 200
105 202
105 204
105 208
105 214
106 108
106 115
106 118
106 119
106 121
106 124
106 127
106 139
106 142
106 143
106 151
106 155
106 156
106 159
106 163
106 164
106 166
106 168
106 169
106 170
106 173
106 177
106 178
106 180
106 181
106 182
106 183
106 184
106 190
106 195
106 203
106 205
106 209
106 211
106 212
106 213
107 122
107 126
107 135
107 137
107 145
107 150
107 158
107 160
107 161
107 167
107 174
107 185
107 186
107 187
107 189
107 194
107 197
107 200
107 202
107 204
107 208
107 214
108 115
108 118
108 119
108 121
108 124
108 139
108 143
108 151
108 159
108 163
108 166
108 168
108 169
108 170
108 177
108 178
108 180
108 181
108 182
108 184
108 190
108 195
108 203
108 205
108 209
108 211
108 212
108 213
109 110
109 171
109 188
109 210
110 171
110 188
110 210
111 114
111 123
111 138
111 147
111 148
111 165
111 199
111 206
113 116
113 120
113 128
113 136
113 144
113 149
113 153
113 154
113 162
113 191
113 198
114 123
114 138
114 148
114 199
114 206
115 118
115 119
115 121
115 124
115 127
115 129
115 134
115 139
115 140
115 141
115 142
115 143
115 151
115 155
115 156
115 159
115 163
115 164
115 166
115 168
115 169
115 170
115 173
115 176
115 177
115 178
115 180
115 181
115 182
115 183
115 184
115 190
115 195
115 203
115 205
115 209
115 211
115 212
115 213
116 120
116 128
116 136
116 144
116 149
116 153
116 154
116 162
116 191
116 198
117 125
117 157
117 165
117 172
117 206
118 119
118 121
118 124
118 127
118 129
118 134
118 139
118 140
118 141
118 142
118 143
118 151
118 155
118 156
118 159
118 163
118 164
118 166
118 169
118 170
118 173
118 176
118 177
118 178
118 180
118 181
118 182
118 183
118 184
118 190
118 195
118 203
118 205
118 209
118 211
118 212
118 213
119 121
119 124
119 139
119 142
119 143
119 151
119 156
119 159
119 163
119 166
119 168
119 169
119 170
119 177
119 178
119 180
119 181
119 182
119 184
119 190
119 195
119 203
119 205
119 209
119 211
119 212
119 213
120 128
120 144
120 149
120 153
120 154
120 162
120 191
120 198
121 124
121 131
121 139
121 141
121 142
121 143
121 151
121 156
121 159
121 163
121 166
121 168
121 169
121 170
121 173
121 177
121 178
121 180
121 181
121 182
121 183
121 184
121 190
121 195
121 203
121 205
121 209
121 211
121 212
121 213
122 126
122 135
122 137
122 145
122 150
122 158
122 160
122 161
122 167
122 174
122 185
122 186
122 187
122 189
122 194
122 196
122 197
122 200
122 202
122 204
122 208
122 214
123 138
123 148
123 199
123 206
124 127
124 129
124 134
124 139
124 140
124 141
124 142
124 143
124 151
124 155
124 156
124 159
124 163
124 164
124 166
124 168
124 169
124 170
124 173
124 176
124 177
124 178
124 181
124 182
124 183
124 184
124 190
124 195
124 203
124 205
124 209
124 211
124 212
124 213
125 138
125 147
125 157
125 206
126 135
126 137
126 145
126 150
126 158
126 160
126 161
126 167
126 174
126 185
126 186
126 187
126 189
126 194
126 197
126 200
126 202
126 204
126 208
126 214
127 129
127 134
127 139
127 140
127 141
127 142
127 143
127 151
127 155
127 156
127 159
127 164
127 168
127 170
127 173
127 178
127 181
127 182
127 183
127 184
127 190
127 195
127 203
127 212
128 136
128 144
128 149
128 153
128 154
128 162
128 191
128 198
129 134
129 140
129 141
129 142
129 151
129 155
129 156
129 164
129 170
129 173
129 178
129 181
129 182
129 183
129 190
129 212
130 193
131 169
131 203
132 146
132 201
133 138
133 147
133 206
134 140
134 141
134 142
134 151
134 155
134 156
134 159
134 163
134 164
134 168
134 170
134 173
134 176
134 178
134 181
134 182
134 183
134 184
134 190
134 203
134 212
135 137
135 145
135 150
135 158
135 160
135 161
135 167
135 174
135 185
135 186
135 187
135 189
135 194
135 197
135 200
135 202
135 204
135 208
135 214
136 149
136 153
136 154
136 191
137 145
137 150
137 158
137 160
137 167
137 185
137 186
137 187
137 189
137 194
137 197
137 200
137 202
137 204
137 208
137 214
138 147
138 148
138 199
138 206
139 141
139 142
139 143
139 151
139 155
139 156
139 159
139 163
139 164
139 166
139 168
139 169
139 170
139 177
139 178
139 180
139 181
139 182
139 183
139 184
139 190
139 195
139 203
139 205
139 209
139 211
139 212
139 213
140 141
140 142
140 151
140 155
140 156
140 164
140 170
140 173
140 181
140 182
140 183
140 190
140 212
141 142
141 151
141 155
141 156
141 159
141 164
141 169
141 170
141 173
141 176
141 178
141 181
141 182
141 183
141 184
141 190
141 195
141 203
141 212
141 213
142 143
142 151
142 155
142 156
142 159
142 164
142 166
142 170
142 173
142 178
142 181
142 182
142 183
142 184
142 190
142 195
142 203
142 205
142 211
142 212
142 213
143 151
143 156
143 159
143 163
143 164
143 166
143 168
143 169
143 170
143 177
143 178
143 180
143 181
143 182
143 184
143 190
143 195
143 203
143 205
143 209
143 211
143 212
143 213
144 149
144 153
144 154
144 162
144 191
144 198
145 150
145 158
145 160
145 161
145 167
145 174
145 185
145 186
145 187
145 189
145 194
145 196
145 197
145 200
145 202
145 204
145 208
145 214
146 193
147 165
147 206
148 199
149 153
149 154
149 162
149 191
149 198
150 158
150 160
150 161
150 167
150 174
150 185
150 186
150 187
150 189
150 194
150 197
150 200
150 202
150 204
150 208
150 214
151 155
151 156
151 159
151 163
151 164
151 166
151 168
151 169
151 170
151 173
151 176
151 177
151 178
151 180
151 181
151 182
151 183
151 184
151 190
151 195
151 203
151 205
151 209
151 211
151 212
151 213
153 154
153 162
153 191
153 198
154 162
154 191
155 156
155 159
155 164
155 166
155 168
155 169
155 170
155 173
155 177
155 178
155 181
155 182
155 183
155 184
155 190
155 195
155 203
155 212
155 213
156 159
156 163
156 164
156 166
156 168
156 169
156 170
156 173
156 177
156 178
156 180
156 181
156 182
156 183
156 184
156 190
156 195
156 203
156 205
156 211
156 212
156 213
157 165
157 206
158 160
158 161
158 167
158 174
158 179
158 185
158 186
158 187
158 189
158 194
158 197
158 200
158 202
158 204
158 208
158 214
159 163
159 164
159 166
159 168
159 169
159 170
159 173
159 176
159 177
159 178
159 180
159 181
159 182
159 183
159 184
159 190
159 195
159 203
159 205
159 209
159 211
159 212
159 213
160 161
160 167
160 174
160 179
160 185
160 186
160 187
160 189
160 194
160 197
160 200
160 202
160 204
160 208
160 214
161 167
161 174
161 185
161 186
161 187
161 189
161 194
161 197
161 200
161 202
161 204
161 208
161 214
162 191
162 198
163 166
163 169
163 170
163 176
163 177
163 178
163 180
163 181
163 182
163 184
163 195
163 203
163 205
163 209
163 212
163 213
164 168
164 170
164 173
164 178
164 181
164 182
164 183
164 184
164 190
164 195
164 203
164 212
165 206
166 168
166 169
166 170
166 177
166 178
166 180
166 181
166 182
166 184
166 190
166 195
166 203
166 205
166 209
166 211
166 212
166 213
167 174
167 185
167 186
167 187
167 189
167 194
167 197
167 200
167 202
167 204
167 208
167 214
168 169
168 170
168 176
168 177
168 178
168 180
168 181
168 182
168 183
168 184
168 190
168 195
168 203
168 205
168 209
168 211
168 213
169 170
169 176
169 177
169 178
169 180
169 181
169 182
169 183
169 184
169 190
169 195
169 203
169 205
169 209
169 211
169 212
169 213
170 173
170 176
170 177
170 178
170 180
170 181
170 182
170 183
170 184
170 190
170 195
170 203
170 205
170 209
170 211
170 212
170 213
171 188
171 210
172 215
173 178
173 181
173 182
173 183
173 184
173 190
173 195
173 203
173 212
174 185
174 186
174 187
174 189
174 194
174 197
174 200
174 202
174 204
174 208
175 207
176 177
176 178
176 181
176 182
176 183
176 195
176 203
176 205
176 211
176 213
177 178
177 180
177 181
177 182
177 184
177 190
177 195
177 203
177 205
177 209
177 211
177 212
177 213
178 180
178 181
178 182
178 183
178 184
178 190
178 195
178 203
178 205
178 209
178 211
178 212
178 213
179 196
179 204
180 181
180 182
180 183
180 184
180 190
180 195
180 203
180 205
180 209
180 211
180 212
180 213
181 182
181 183
181 184
181 190
181 195
181 203
181 205
181 209
181 211
181 212
181 213
182 183
182 184
182 190
182 195
182 203
182 205
182 209
182 211
182 212
182 213
183 184
183 190
183 195
183 203
183 211
183 212
184 190
184 195
184 203
184 205
184 209
184 211
184 212
184 213
185 186
185 187
185 189
185 194
185 197
185 200
185 202
185 204
185 208
185 214
186 187
186 189
186 194
186 197
186 200
186 202
186 204
186 208
186 214
187 189
187 194
187 197
187 200
187 202
187 204
187 208
188 210
189 194
189 197
189 200
189 202
189 204
189 208
189 214
190 195
190 203
190 205
190 209
190 212
190 213
191 198
193 201
194 197
194 200
194 202
194 204
194 208
194 214
195 203
195 205
195 209
195 211
195 212
195 213
197 200
197 202
197 204
197 208
197 214
200 202
200 204
200 208
200 214
202 204
202 208
202 214
203 205
203 209
203 211
203 212
203 213
204 208
204 214
205 209
205 211
205 212
205 213
209 211
209 212
209 213
211 212
211 213
212 213
